(declare-fun a_ack!616 () (_ BitVec 32))
(declare-fun b_ack!614 () (_ BitVec 32))
(declare-fun c_ack!615 () (_ BitVec 64))
(assert (not (bvslt a_ack!616 #x00000000)))
(assert (not (bvslt b_ack!614 a_ack!616)))
(assert (not (fp.eq ((_ to_fp 11 53) c_ack!615) ((_ to_fp 11 53) #x0000000000000000))))
(assert (bvslt (bvadd #x00000001 b_ack!614) #x00000000))
(assert (= #x00000000 (bvand (bvsub #xffffffff b_ack!614) #x00000001)))
(assert (not (fp.lt ((_ to_fp 11 53) c_ack!615) ((_ to_fp 11 53) #x0000000000000000))))
(assert (not (= #xffffffff b_ack!614)))
(assert (= #xfffffffe b_ack!614))

(check-sat)
(exit)
